int NumberPatients = 107
int NumberOfRooms = 15
int NumberSurgeons = 15
int NumberOfDays = 6
Duration = [107,74,98,119,78,66,98,94,41,72,238,41,42,74,132,31,32,165,53,98,32,103,60,97,131,68,210,98,32,85,66,31,32,46,46,32,53,117,119,103,126,119,97,98,32,74,157,59,117,80,53,68,107,97,71,216,32,66,130,32,101,46,85,66,98,217,53,98,46,47,75,103,165,105,98,201,119,98,78,32,103,238,47,112,32,238,98,46,47,201,103,39,210,101,66,210,145,75,210,101,159,53,31,47,66,103,66];
Priority = [0,0,0,0,0,0,0,0,0,0,0,0,0,0,0,0,0,0,0,0,0,0,0,0,0,0,0,0,0,0,0,0,0,0,0,0,0,0,0,0,0,0,0,0,0,0,0,0,0,0,0,0,0,0,0,0,0,0,0,0,0,0,0,0,0,0,0,0,0,0,0,0,0,0,0,0,0,0,0,0,0,0,0,0,0,0,0,0,0,0,0,0,0,0,0,0,0,0,0,0,0,0,0,0,0,0,0];
Waiting = [148,134,35,183,135,366,169,70,253,58,45,144,144,50,95,43,63,21,52,387,59,191,74,389,148,106,127,281,604,30,30,214,21,507,39,45,60,247,102,119,73,80,32,382,102,37,123,52,148,46,53,221,261,72,116,487,78,51,84,37,242,305,135,281,65,63,200,107,422,36,107,288,148,137,106,176,39,70,604,193,37,191,79,120,30,37,56,120,98,43,366,60,57,79,221,85,37,144,190,39,36,211,64,57,94,191,232];
Surgeon = [3,5,5,8,4,4,8,5,8,5,15,5,6,3,9,1,8,3,1,6,4,4,8,3,4,7,8,9,1,6,4,5,2,4,6,2,9,1,5,3,5,1,1,6,4,5,6,5,3,6,6,3,1,3,3,2,9,1,1,6,2,4,2,5,1,5,5,4,6,2,8,3,6,1,6,1,6,1,1,3,5,3,5,6,8,2,3,6,9,6,4,12,5,3,1,3,3,3,1,6,8,3,1,6,2,1,4];
BlockAvailability = [[[1,1],[0,0],[0,1],[0,0],[1,0],[0,0],[1,0],[0,0],[0,0],[0,0],[1,1],[0,0],[0,0],[0,1],[1,0]],[[0,0],[1,0],[1,0],[0,0],[1,0],[0,1],[0,0],[0,1],[0,0],[0,0],[0,1],[0,1],[1,0],[0,0],[0,1]],[[1,0],[1,0],[0,1],[0,1],[1,0],[1,0],[0,1],[0,1],[0,0],[0,0],[0,1],[0,0],[1,1],[0,0],[1,0]],[[1,0],[0,0],[0,0],[0,1],[0,0],[0,0],[0,0],[0,1],[0,0],[1,0],[0,0],[0,0],[0,1],[0,0],[1,0]],[[0,1],[0,0],[1,0],[0,0],[1,0],[1,1],[0,0],[0,1],[0,0],[0,0],[0,0],[1,1],[0,0],[0,1],[0,0]],[[1,0],[0,0],[1,0],[0,0],[0,1],[0,0],[0,0],[0,0],[0,0],[1,0],[0,1],[1,0],[0,0],[0,0],[1,1]]];
SurgeonAvailability = [[[1,1],[1,1],[1,1],[1,1],[0,1],[0,1]],[[1,0],[1,1],[0,1],[1,1],[1,1],[0,0]],[[1,1],[1,1],[1,1],[1,1],[0,1],[1,1]],[[1,1],[1,0],[1,1],[1,0],[0,0],[1,0]],[[1,1],[1,1],[1,0],[1,1],[0,1],[1,1]],[[1,1],[1,0],[1,0],[0,1],[1,1],[1,1]],[[1,0],[1,0],[1,1],[1,1],[1,1],[1,1]],[[1,1],[1,1],[1,1],[0,1],[1,1],[1,0]],[[1,1],[1,1],[1,0],[1,1],[1,0],[1,1]],[[0,0],[1,1],[1,0],[1,1],[0,1],[1,1]],[[1,1],[1,0],[0,1],[1,0],[0,0],[1,1]],[[0,1],[0,1],[1,0],[1,1],[1,1],[0,0]],[[1,1],[0,1],[0,0],[1,0],[1,1],[1,1]],[[1,1],[1,0],[1,1],[1,1],[1,1],[1,0]],[[1,0],[1,1],[0,1],[1,1],[1,1],[0,1]]];
